projet_m2_wvcp/reduced_wvcp_dzn/p27.clq.dzn
cliques=[{0,1,2,3,4},{0,1,2,3,4},{0,1,2,3,4},{0,1,2,3,4},{0,1,2,3,4},{5,6,7,8,9},{5,6,7,8,9},{5,6,7,8,9},{5,6,7,8,9},{5,6,7,8,9},{5,10,14,24,39},{0,11,19,28,33},{10,11,12,13},{10,11,12,13},{14,15,16,17,18},{14,15,16,17,18},{14,15,16,17,18},{14,15,16,17,18},{14,15,16,17,18},{0,11,19,28,33},{2,20,25,30,34},{3,16,21,36},{9,18,22,27,31,43},{4,13,23,32,38},{5,10,14,24,39},{2,20,25,30,34},{7,15,26,35,41},{9,18,22,27,31,43},{0,11,19,28,33},{1,6,29,40},{2,20,25,30,34},{9,18,22,27,31,43},{4,13,23,32,38},{0,11,19,28,33},{2,20,25,30,34},{7,15,26,35,41},{3,16,21,36},{8,12,17,37,42},{4,13,23,32,38},{5,10,14,24,39},{1,6,29,40},{7,15,26,35,41},{8,12,17,37,42},{9,18,22,27,31,43}];
nr_cliques=44;
