projet_m2_wvcp/reduced_wvcp_dzn/p27.dzn
name="p27";
nr_vertices=44;
nr_edges=174;
neighborhoods=[{1,2,3,4,11,19,28,33},{0,2,3,4,6,29,40},{0,1,3,4,20,25,30,34},{0,1,2,4,16,21,36},{0,1,2,3,13,23,32,38},{6,7,8,9,10,14,24,39},{1,5,7,8,9,29,40},{5,6,8,9,15,26,35,41},{5,6,7,9,12,17,37,42},{5,6,7,8,18,22,27,31,43},{5,11,12,13,14,24,39},{0,10,12,13,19,28,33},{8,10,11,13,17,37,42},{4,10,11,12,23,32,38},{5,10,15,16,17,18,24,39},{7,14,16,17,18,26,35,41},{3,14,15,17,18,21,36},{8,12,14,15,16,18,37,42},{9,14,15,16,17,22,27,31,43},{0,11,20,21,22,23,28,33},{2,19,21,22,23,25,30,34},{3,16,19,20,22,23,36},{9,18,19,20,21,23,27,31,43},{4,13,19,20,21,22,32,38},{5,10,14,25,26,27,39},{2,20,24,26,27,30,34},{7,15,24,25,27,35,41},{9,18,22,24,25,26,31,43},{0,11,19,29,30,31,32,33},{1,6,28,30,31,32,40},{2,20,25,28,29,31,32,34},{9,18,22,27,28,29,30,32,43},{4,13,23,28,29,30,31,38},{0,11,19,28,34,35,36,37,38},{2,20,25,30,33,35,36,37,38},{7,15,26,33,34,36,37,38,41},{3,16,21,33,34,35,37,38},{8,12,17,33,34,35,36,38,42},{4,13,23,32,33,34,35,36,37},{5,10,14,24,40,41,42,43},{1,6,29,39,41,42,43},{7,15,26,35,39,40,42,43},{8,12,17,37,39,40,41,43},{9,18,22,27,31,39,40,41,42}];
weights=[44,43,42,41,40,39,38,37,36,35,34,33,32,31,30,29,28,27,26,25,24,23,22,21,20,19,18,17,16,15,14,13,12,11,10,9,8,7,6,5,4,3,2,1];
